(set-logic QF_SLIA)
(declare-fun var0 () String)
(assert (not (str.in_re var0 (re.++ ((_ re.loop 0 895) (re.++ (re.union (str.to_re "9R") (re.union (str.to_re "!ea") (re.union (str.to_re "|{4") (str.to_re "xL")))) (re.++ (re.union (str.to_re "|") (re.union (str.to_re "$") (re.union (str.to_re "'") (str.to_re "13X")))) (re.++ (re.union (str.to_re "xE") (re.union (str.to_re "S>k") (re.union (str.to_re "z\\") (str.to_re "_So")))) (re.union (str.to_re "wTe") (re.union (str.to_re "!ov") (re.union (str.to_re "n") (str.to_re "/&O")))))))) (re.++ ((_ re.loop 10 908) (re.++ (re.union (str.to_re "V<!") (re.union (str.to_re "M") (re.union (str.to_re "'@u") (str.to_re "R*")))) (re.++ (re.union (str.to_re "]R") (re.union (str.to_re ";n") (re.union (str.to_re "[i") (str.to_re "<")))) (re.++ (re.union (str.to_re "ch") (re.union (str.to_re "V\\") (re.union (str.to_re "1") (str.to_re ":")))) (re.union (str.to_re "@") (re.union (str.to_re "J,") (re.union (str.to_re "5(x") (str.to_re "ii")))))))) (re.++ ((_ re.loop 20 44) (re.++ (re.union (str.to_re "Q") (re.union (str.to_re "Z") (re.union (str.to_re "Nl") (str.to_re "=-_")))) (re.++ (re.union (str.to_re "x") (re.union (str.to_re "h") (re.union (str.to_re "=") (str.to_re "hV*")))) (re.++ (re.union (str.to_re "HB$") (re.union (str.to_re "e") (re.union (str.to_re "A>U") (str.to_re "/Q")))) (re.union (str.to_re "q5~") (re.union (str.to_re "${") (re.union (str.to_re "3") (str.to_re "i")))))))) ((_ re.loop 11 568) (re.++ (re.union (str.to_re "qH") (re.union (str.to_re "G7") (re.union (str.to_re "u") (str.to_re "`j*")))) (re.++ (re.union (str.to_re "=\u0022U") (re.union (str.to_re "o") (re.union (str.to_re "*{") (str.to_re "So^")))) (re.++ (re.union (str.to_re "^)") (re.union (str.to_re "X.") (re.union (str.to_re "b") (str.to_re "ZI<")))) (re.union (str.to_re "kP") (re.union (str.to_re "~=") (re.union (str.to_re "R") (str.to_re "y2"))))))))))))))
(assert (not (str.in_re var0 (re.++ ((_ re.loop 16 592) (re.++ (re.union (str.to_re "ClE") (re.union (str.to_re "2") (re.union (str.to_re "7*'") (str.to_re "$")))) (re.++ (re.union (str.to_re "w") (re.union (str.to_re "U") (re.union (str.to_re "R") (str.to_re "qnR")))) (re.++ (re.union (str.to_re "h") (re.union (str.to_re "h") (re.union (str.to_re "y") (str.to_re "EJ$")))) (re.union (str.to_re "0") (re.union (str.to_re "0'W") (re.union (str.to_re "c!?") (str.to_re "5")))))))) (re.++ ((_ re.loop 4 486) (re.++ (re.union (str.to_re "7-") (re.union (str.to_re "[") (re.union (str.to_re "?Rr") (str.to_re "j")))) (re.++ (re.union (str.to_re "L\u00224") (re.union (str.to_re ";") (re.union (str.to_re "C>#") (str.to_re "^\\&")))) (re.++ (re.union (str.to_re "J") (re.union (str.to_re "S") (re.union (str.to_re "t") (str.to_re "M3u")))) (re.union (str.to_re "d") (re.union (str.to_re "-,<") (re.union (str.to_re "#}") (str.to_re "5N")))))))) (re.++ ((_ re.loop 18 743) (re.++ (re.union (str.to_re "*w") (re.union (str.to_re "YY}") (re.union (str.to_re "H.") (str.to_re "0w")))) (re.++ (re.union (str.to_re "|hm") (re.union (str.to_re "pRK") (re.union (str.to_re "\u0022") (str.to_re "Jz?")))) (re.++ (re.union (str.to_re "3i/") (re.union (str.to_re "w8#") (re.union (str.to_re "%@") (str.to_re "G8+")))) (re.union (str.to_re "!") (re.union (str.to_re "s_") (re.union (str.to_re "zs]") (str.to_re "+J%")))))))) ((_ re.loop 13 70) (re.++ (re.union (str.to_re "}") (re.union (str.to_re "zDq") (re.union (str.to_re "F(c") (str.to_re "]J")))) (re.++ (re.union (str.to_re "VqF") (re.union (str.to_re "c{e") (re.union (str.to_re ",&") (str.to_re "m2*")))) (re.++ (re.union (str.to_re "]x") (re.union (str.to_re "oY") (re.union (str.to_re "v") (str.to_re "m")))) (re.union (str.to_re "vVh") (re.union (str.to_re "H4X") (re.union (str.to_re "U`") (str.to_re "="))))))))))))))
(assert (not (str.in_re var0 (re.++ (re.* re.allchar) (re.++ (re.union (str.to_re "<") (re.union (str.to_re ">") (re.union (str.to_re "'") (re.union (str.to_re "\u0022") (str.to_re "&"))))) (re.* re.allchar))))))
(assert (<= 50 (str.len var0)))
(check-sat)
(get-model)
